p wcnf 118 177 178 
1 110 -40 0 
1 -50 81 0 
1 29 -75 0 
1 -32 -80 0 
1 11 -27 0 
1 -6 -56 0 
1 55 -81 0 
1 -74 70 0 
1 -11 93 0 
1 104 -41 0 
1 78 30 0 
1 -101 -1 0 
1 -56 -86 0 
1 -95 -82 0 
1 95 17 0 
1 110 -75 0 
1 99 -100 0 
1 60 102 0 
1 -6 84 0 
1 -76 -51 0 
1 5 59 0 
1 -16 55 0 
1 -88 98 0 
1 -98 90 0 
1 -47 29 0 
1 -81 100 0 
1 89 -100 0 
1 -98 53 0 
1 -84 62 0 
1 77 -27 0 
1 3 -53 0 
1 -87 40 0 
1 -60 -108 0 
1 -107 118 0 
1 30 -81 0 
1 96 -59 0 
1 10 -12 0 
1 34 -13 0 
1 9 -54 0 
1 -98 23 0 
1 69 -12 0 
1 -72 -65 0 
1 14 44 0 
1 95 103 0 
1 40 -6 0 
1 -11 29 0 
1 -117 -84 0 
1 -12 8 0 
1 1 -20 0 
1 -60 31 0 
1 -89 -18 0 
1 109 92 0 
1 -23 48 0 
1 -90 -43 0 
1 56 106 0 
1 107 62 0 
1 -106 47 0 
1 32 109 0 
1 98 94 0 
1 -80 -28 0 
1 -7 -79 0 
1 -22 92 0 
1 -87 73 0 
1 -101 -16 0 
1 -56 94 0 
1 33 35 0 
1 64 11 0 
1 -48 -35 0 
1 69 -70 0 
1 66 23 0 
1 48 14 0 
1 108 106 0 
1 105 37 0 
1 -27 -10 0 
1 28 -88 0 
1 -62 -12 0 
1 33 -67 0 
1 -33 110 0 
1 -52 -42 0 
1 -114 -92 0 
1 -36 19 0 
1 44 -98 0 
1 9 -50 0 
1 -113 -10 0 
1 -3 -7 0 
1 -45 -110 0 
1 10 104 0 
1 -60 65 0 
1 67 -117 0 
1 51 80 0 
1 61 -113 0 
1 67 -76 0 
1 60 -43 0 
1 88 48 0 
1 -40 -99 0 
1 65 -4 0 
1 -85 -116 0 
1 -93 49 0 
1 -91 -1 0 
1 82 26 0 
1 -106 72 0 
1 -42 84 0 
1 12 -4 0 
1 -48 81 0 
1 -109 -116 0 
1 34 32 0 
1 -21 -11 0 
1 -65 19 0 
1 15 -18 0 
1 48 56 0 
1 63 22 0 
1 -34 -118 0 
1 80 -91 0 
1 -101 -103 0 
1 -92 -44 0 
1 40 -44 0 
1 78 2 0 
1 18 109 0 
1 63 -60 0 
1 -43 -50 0 
1 -102 -65 0 
1 -96 104 0 
1 74 -40 0 
1 55 87 0 
1 78 -33 0 
1 -111 99 0 
1 -111 77 0 
1 61 96 0 
1 -6 82 0 
1 -105 106 0 
1 -7 -116 0 
1 85 -92 0 
1 -12 95 0 
1 11 -72 0 
1 35 -113 0 
1 26 14 0 
1 88 -46 0 
1 -118 -2 0 
1 106 -108 0 
1 38 -44 0 
1 -25 4 0 
1 -10 -60 0 
1 -86 99 0 
1 61 60 0 
1 -116 -85 0 
1 -53 -101 0 
1 -44 49 0 
1 -58 92 0 
1 -44 -23 0 
1 -7 97 0 
1 86 -67 0 
1 -23 -104 0 
1 -20 -64 0 
1 108 110 0 
1 -115 91 0 
1 -71 66 0 
1 -88 -36 0 
1 118 -54 0 
1 20 71 0 
1 12 34 0 
1 -35 -18 0 
1 -114 -38 0 
1 -17 -28 0 
1 98 21 0 
1 90 -65 0 
1 -65 50 0 
1 -72 1 0 
1 110 91 0 
1 5 -71 0 
1 39 17 0 
1 -34 -36 0 
1 43 -116 0 
1 106 -42 0 
1 43 -33 0 
1 -18 99 0 
1 19 -98 0 
1 60 -112 0 
